ilp_joint/output/ilp.lp
Maximize
  0.05 Z_000 + 0.1 Z_001 + 0.4 Z_002 + 0.15 Z_003 + 0.35 Z_010 + 0.15 Z_011
   + 0.05 Z_012 + 0.2 Z_013 + 0.15 Z_020 + 0.1 Z_021 + 0.05 Z_022
   + 0.35 Z_023 + 0.05 Z_100 + 0.1 Z_101 + 0.35 Z_102 + 0.1 Z_103
   + 0.4 Z_110 + 0.1 Z_111 + 0.15 Z_113 + 0.25 Z_120 + 0.1 Z_121
   + 0.05 Z_122 + 0.35 Z_123 + 0.05 Z_200 + 0.1 Z_201 + 0.35 Z_202
   + 0.05 Z_203 + 0.25 Z_210 + 0.15 Z_211 + 0.05 Z_212 + 0.4 Z_213
   + 0.05 Z_300 + 0.05 Z_301 + 0.4 Z_302 + 0.05 Z_303 + 0.35 Z_310
   + 0.1 Z_311 + 0.05 Z_312 + 0.25 Z_313 + 0.2 Z_320 + 0.1 Z_321
   + 0.05 Z_322 + 0.35 Z_323 + [ 1.6 Z_000 * Z_100 + 0.4 Z_000 * Z_110
   + 0.2 Z_000 * Z_120 + 1.4 Z_000 * Z_200 + 0.2 Z_000 * Z_210
   + 1.8 Z_000 * Z_300 + 0.2 Z_000 * Z_310 + 0.4 Z_000 * Z_320
   + 1.6 Z_001 * Z_101 + 0.4 Z_001 * Z_111 + 0.2 Z_001 * Z_121
   + 1.4 Z_001 * Z_201 + 0.2 Z_001 * Z_211 + 1.8 Z_001 * Z_301
   + 0.2 Z_001 * Z_311 + 0.4 Z_001 * Z_321 + 1.6 Z_002 * Z_102
   + 0.4 Z_002 * Z_112 + 0.2 Z_002 * Z_122 + 1.4 Z_002 * Z_202
   + 0.2 Z_002 * Z_212 + 1.8 Z_002 * Z_302 + 0.2 Z_002 * Z_312
   + 0.4 Z_002 * Z_322 + 1.6 Z_003 * Z_103 + 0.4 Z_003 * Z_113
   + 0.2 Z_003 * Z_123 + 1.4 Z_003 * Z_203 + 0.2 Z_003 * Z_213
   + 1.8 Z_003 * Z_303 + 0.2 Z_003 * Z_313 + 0.4 Z_003 * Z_323
   + 0.2 Z_010 * Z_100 + 2 Z_010 * Z_110 + 0.8 Z_010 * Z_120
   + 0.2 Z_010 * Z_200 + 1.4 Z_010 * Z_210 + 0.2 Z_010 * Z_300
   + 1.8 Z_010 * Z_310 + Z_010 * Z_320 + 0.2 Z_011 * Z_101
   + 2 Z_011 * Z_111 + 0.8 Z_011 * Z_121 + 0.2 Z_011 * Z_201
   + 1.4 Z_011 * Z_211 + 0.2 Z_011 * Z_301 + 1.8 Z_011 * Z_311
   + Z_011 * Z_321 + 0.2 Z_012 * Z_102 + 2 Z_012 * Z_112
   + 0.8 Z_012 * Z_122 + 0.2 Z_012 * Z_202 + 1.4 Z_012 * Z_212
   + 0.2 Z_012 * Z_302 + 1.8 Z_012 * Z_312 + Z_012 * Z_322
   + 0.2 Z_013 * Z_103 + 2 Z_013 * Z_113 + 0.8 Z_013 * Z_123
   + 0.2 Z_013 * Z_203 + 1.4 Z_013 * Z_213 + 0.2 Z_013 * Z_303
   + 1.8 Z_013 * Z_313 + Z_013 * Z_323 + 0.4 Z_020 * Z_100
   + 0.6 Z_020 * Z_110 + 1.4 Z_020 * Z_120 + 0.6 Z_020 * Z_200
   + 1.2 Z_020 * Z_210 + 0.2 Z_020 * Z_300 + 0.8 Z_020 * Z_310
   + 1.6 Z_020 * Z_320 + 0.4 Z_021 * Z_101 + 0.6 Z_021 * Z_111
   + 1.4 Z_021 * Z_121 + 0.6 Z_021 * Z_201 + 1.2 Z_021 * Z_211
   + 0.2 Z_021 * Z_301 + 0.8 Z_021 * Z_311 + 1.6 Z_021 * Z_321
   + 0.4 Z_022 * Z_102 + 0.6 Z_022 * Z_112 + 1.4 Z_022 * Z_122
   + 0.6 Z_022 * Z_202 + 1.2 Z_022 * Z_212 + 0.2 Z_022 * Z_302
   + 0.8 Z_022 * Z_312 + 1.6 Z_022 * Z_322 + 0.4 Z_023 * Z_103
   + 0.6 Z_023 * Z_113 + 1.4 Z_023 * Z_123 + 0.6 Z_023 * Z_203
   + 1.2 Z_023 * Z_213 + 0.2 Z_023 * Z_303 + 0.8 Z_023 * Z_313
   + 1.6 Z_023 * Z_323 + 1.6 Z_100 * Z_200 + 0.2 Z_100 * Z_210
   + 1.6 Z_100 * Z_300 + 0.2 Z_100 * Z_310 + 0.6 Z_100 * Z_320
   + 1.6 Z_101 * Z_201 + 0.2 Z_101 * Z_211 + 1.6 Z_101 * Z_301
   + 0.2 Z_101 * Z_311 + 0.6 Z_101 * Z_321 + 1.6 Z_102 * Z_202
   + 0.2 Z_102 * Z_212 + 1.6 Z_102 * Z_302 + 0.2 Z_102 * Z_312
   + 0.6 Z_102 * Z_322 + 1.6 Z_103 * Z_203 + 0.2 Z_103 * Z_213
   + 1.6 Z_103 * Z_303 + 0.2 Z_103 * Z_313 + 0.6 Z_103 * Z_323
   + 0.4 Z_110 * Z_200 + 1.4 Z_110 * Z_210 + 0.2 Z_110 * Z_300
   + 1.8 Z_110 * Z_310 + 1.2 Z_110 * Z_320 + 0.4 Z_111 * Z_201
   + 1.4 Z_111 * Z_211 + 0.2 Z_111 * Z_301 + 1.8 Z_111 * Z_311
   + 1.2 Z_111 * Z_321 + 0.4 Z_112 * Z_202 + 1.4 Z_112 * Z_212
   + 0.2 Z_112 * Z_302 + 1.8 Z_112 * Z_312 + 1.2 Z_112 * Z_322
   + 0.4 Z_113 * Z_203 + 1.4 Z_113 * Z_213 + 0.2 Z_113 * Z_303
   + 1.8 Z_113 * Z_313 + 1.2 Z_113 * Z_323 + 0.6 Z_120 * Z_200
   + 1.6 Z_120 * Z_210 + 0.2 Z_120 * Z_300 + 0.8 Z_120 * Z_310
   + 1.6 Z_120 * Z_320 + 0.6 Z_121 * Z_201 + 1.6 Z_121 * Z_211
   + 0.2 Z_121 * Z_301 + 0.8 Z_121 * Z_311 + 1.6 Z_121 * Z_321
   + 0.6 Z_122 * Z_202 + 1.6 Z_122 * Z_212 + 0.2 Z_122 * Z_302
   + 0.8 Z_122 * Z_312 + 1.6 Z_122 * Z_322 + 0.6 Z_123 * Z_203
   + 1.6 Z_123 * Z_213 + 0.2 Z_123 * Z_303 + 0.8 Z_123 * Z_313
   + 1.6 Z_123 * Z_323 + 1.4 Z_200 * Z_300 + 0.4 Z_200 * Z_310
   + 0.6 Z_200 * Z_320 + 1.4 Z_201 * Z_301 + 0.4 Z_201 * Z_311
   + 0.6 Z_201 * Z_321 + 1.4 Z_202 * Z_302 + 0.4 Z_202 * Z_312
   + 0.6 Z_202 * Z_322 + 1.4 Z_203 * Z_303 + 0.4 Z_203 * Z_313
   + 0.6 Z_203 * Z_323 + 0.2 Z_210 * Z_300 + 1.2 Z_210 * Z_310
   + 1.2 Z_210 * Z_320 + 0.2 Z_211 * Z_301 + 1.2 Z_211 * Z_311
   + 1.2 Z_211 * Z_321 + 0.2 Z_212 * Z_302 + 1.2 Z_212 * Z_312
   + 1.2 Z_212 * Z_322 + 0.2 Z_213 * Z_303 + 1.2 Z_213 * Z_313
   + 1.2 Z_213 * Z_323 ] / 2 
Subject To
 constraint1_00: Z_000 + Z_001 + Z_002 + Z_003 <= 1
 constraint1_01: Z_010 + Z_011 + Z_012 + Z_013 <= 1
 constraint1_02: Z_020 + Z_021 + Z_022 + Z_023 <= 1
 constraint1_10: Z_100 + Z_101 + Z_102 + Z_103 <= 1
 constraint1_11: Z_110 + Z_111 + Z_112 + Z_113 <= 1
 constraint1_12: Z_120 + Z_121 + Z_122 + Z_123 <= 1
 constraint1_20: Z_200 + Z_201 + Z_202 + Z_203 <= 1
 constraint1_21: Z_210 + Z_211 + Z_212 + Z_213 <= 1
 constraint1_30: Z_300 + Z_301 + Z_302 + Z_303 <= 1
 constraint1_31: Z_310 + Z_311 + Z_312 + Z_313 <= 1
 constraint1_32: Z_320 + Z_321 + Z_322 + Z_323 <= 1
 constraint2_00: Z_000 + Z_010 + Z_020 <= 1
 constraint2_01: Z_001 + Z_011 + Z_021 <= 1
 constraint2_02: Z_002 + Z_012 + Z_022 <= 1
 constraint2_03: Z_003 + Z_013 + Z_023 <= 1
 constraint2_10: Z_100 + Z_110 + Z_120 <= 1
 constraint2_11: Z_101 + Z_111 + Z_121 <= 1
 constraint2_12: Z_102 + Z_112 + Z_122 <= 1
 constraint2_13: Z_103 + Z_113 + Z_123 <= 1
 constraint2_20: Z_200 + Z_210 <= 1
 constraint2_21: Z_201 + Z_211 <= 1
 constraint2_22: Z_202 + Z_212 <= 1
 constraint2_23: Z_203 + Z_213 <= 1
 constraint2_30: Z_300 + Z_310 + Z_320 <= 1
 constraint2_31: Z_301 + Z_311 + Z_321 <= 1
 constraint2_32: Z_302 + Z_312 + Z_322 <= 1
 constraint2_33: Z_303 + Z_313 + Z_323 <= 1
Bounds
Binaries
 Z_000 Z_001 Z_002 Z_003 Z_010 Z_011 Z_012 Z_013 Z_020 Z_021 Z_022 Z_023
 Z_100 Z_101 Z_102 Z_103 Z_110 Z_111 Z_112 Z_113 Z_120 Z_121 Z_122 Z_123
 Z_200 Z_201 Z_202 Z_203 Z_210 Z_211 Z_212 Z_213 Z_300 Z_301 Z_302 Z_303
 Z_310 Z_311 Z_312 Z_313 Z_320 Z_321 Z_322 Z_323
End
