ilp_joint/output/ilp.sol
# Solution for model srl_ilp
# Objective value = 1.5850000000000001e+01
Z_000 0
Z_001 0
Z_002 1
Z_003 0
Z_010 1
Z_011 0
Z_012 0
Z_013 0
Z_020 0
Z_021 0
Z_022 0
Z_023 1
Z_100 0
Z_101 0
Z_102 1
Z_103 0
Z_110 1
Z_111 0
Z_112 0
Z_113 0
Z_120 0
Z_121 0
Z_122 0
Z_123 1
Z_200 0
Z_201 0
Z_202 1
Z_203 0
Z_210 0
Z_211 0
Z_212 0
Z_213 1
Z_300 0
Z_301 0
Z_302 1
Z_303 0
Z_310 1
Z_311 0
Z_312 0
Z_313 0
Z_320 0
Z_321 0
Z_322 0
Z_323 1
